50
21931

622 805
218 816
562 383
421 828
349 665
906 258
313 702
82 248
467 882
705 365
683 273
813 697
963 463
521 300
133 513
988 177
569 328
146 197
271 817
625 197
721 142
156 547
111 379
92 830
373 252
139 962
215 319
606 533
749 670
457 831
45 653
265 944
51 585
157 106
991 870
761 428
262 859
893 24
651 331
669 155
387 591
908 627
977 586
505 163
795 769
142 827
318 441
604 542
550 178
218 680
